(set-logic ALL)
(set-option :produce-models true)
(declare-sort BoundSet 0)
(declare-sort UnboundSet 0)
(set-option :finite-model-find true)
(declare-fun IsYoung (BoundSet) Bool)
(declare-fun IsInside (BoundSet BoundSet) Bool)
(declare-fun IsPosing (BoundSet) Bool)
(assert (not (=> (exists ((a BoundSet)) (exists ((b BoundSet)) (and (IsYoung a) (IsInside a b)))) (exists ((c BoundSet)) (exists ((d BoundSet)) (and (IsPosing c) (IsInside c d)))))))
(check-sat)
(get-model)